c is-sat
p cnf 10 66
2 1 7 0
-2 9 -4 0
3 8 -9 0
1 -4 5 0
-7 -8 -1 0
-2 5 -10 0
9 -5 -3 0
-1 -5 -4 0
3 -6 -4 0
-7 -6 -5 0
-7 -9 -10 0
-10 -7 -8 0
8 -7 -10 0
10 -6 3 0
-10 -4 -5 0
1 6 -2 0
-1 -9 2 0
-3 -5 -1 0
-4 -2 9 0
-1 -3 -7 0
-7 -1 5 0
-5 -1 9 0
-4 -6 8 0
10 8 -7 0
7 1 -8 0
-4 8 -2 0
-6 8 -5 0
-5 9 -7 0
-8 7 -1 0
-9 5 -10 0
6 10 -7 0
-3 -10 7 0
-8 3 -6 0
-3 -4 -7 0
4 -7 -5 0
-8 -6 -4 0
-9 -7 -5 0
-5 -1 -9 0
1 -4 -7 0
-10 -9 8 0
-2 4 -5 0
-3 -1 -5 0
-5 -7 -6 0
1 5 7 0
-1 9 -3 0
5 8 -10 0
-5 6 1 0
10 -3 -2 0
-1 -7 -5 0
-5 -10 -1 0
-4 -9 -10 0
-10 2 -8 0
2 7 -9 0
-5 -4 3 0
2 1 5 0
-10 -9 -8 0
2 -4 -1 0
7 4 -2 0
-9 -2 -10 0
2 -8 7 0
-9 -7 -8 0
-5 3 -6 0
5 -4 -2 0
4 9 -5 0
3 -8 -5 0
-7 -8 9 0
